c FILE /home/rafael/Documents/HappySet/MIHS/inputs/happygen/output/graph_scale_free_k2_p0.1_v100_20241127_083750.txt
c SOURCE This is a scale-free graph formed for the happy graph colouring problem.
c DESCRIPTION It was generated using the problem generator of Rhyd Lewis
c
c GRAPH STATS
c Seed                             = -1378434810
c Number of Nodes                  = 100
c Number of colours k              = 2
c Number of pre-assignments        = 10
c Number of links per new node     = 5
c Density                          = 0.0979798
c 
c The degrees of nodes 1 to 100, respectively, are as follows 
c [35, 28, 28, 27, 25, 25, 23, 22, 21, 20, 20, 19, 19, 18, 17, 14, 14, 13, 12, 12, 11, 11, 11, 11, 11, 10, 
c  10, 10, 10, 10, 10, 10, 10, 9, 9, 9, 9, 9, 9, 9, 9, 9, 8, 8, 8, 8, 8, 7, 7, 7, 7, 
c  7, 7, 7, 7, 7, 7, 7, 6, 6, 6, 6, 6, 6, 6, 6, 6, 6, 6, 6, 6, 6, 6, 5, 5, 5, 
c  5, 5, 5, 5, 5, 5, 5, 5, 5, 5, 5, 5, 5, 5, 5, 5, 5, 5, 5, 5, 5, 5, 5, 5] 
c  
p edge 100 485 2
e 1 2
e 1 3
e 1 4
e 1 5
e 1 6
e 1 7
e 1 8
e 1 10
e 1 11
e 1 12
e 1 14
e 1 16
e 1 18
e 1 20
e 1 23
e 1 27
e 1 30
e 1 34
e 1 40
e 1 42
e 1 43
e 1 44
e 1 45
e 1 46
e 1 48
e 1 51
e 1 53
e 1 54
e 1 57
e 1 60
e 1 62
e 1 72
e 1 76
e 1 86
e 1 87
e 2 3
e 2 4
e 2 5
e 2 6
e 2 7
e 2 8
e 2 9
e 2 13
e 2 14
e 2 16
e 2 19
e 2 21
e 2 22
e 2 23
e 2 24
e 2 26
e 2 27
e 2 36
e 2 37
e 2 56
e 2 57
e 2 61
e 2 66
e 2 69
e 2 71
e 2 72
e 2 74
e 3 4
e 3 5
e 3 7
e 3 8
e 3 9
e 3 10
e 3 12
e 3 14
e 3 17
e 3 21
e 3 22
e 3 26
e 3 28
e 3 29
e 3 34
e 3 37
e 3 41
e 3 43
e 3 48
e 3 54
e 3 68
e 3 69
e 3 75
e 3 77
e 3 84
e 3 93
e 4 5
e 4 6
e 4 7
e 4 8
e 4 9
e 4 10
e 4 12
e 4 16
e 4 18
e 4 22
e 4 28
e 4 32
e 4 34
e 4 35
e 4 42
e 4 45
e 4 47
e 4 50
e 4 59
e 4 62
e 4 65
e 4 81
e 4 89
e 4 90
e 5 6
e 5 8
e 5 10
e 5 13
e 5 15
e 5 18
e 5 20
e 5 22
e 5 25
e 5 34
e 5 41
e 5 45
e 5 46
e 5 49
e 5 51
e 5 55
e 5 56
e 5 58
e 5 63
e 5 79
e 5 87
e 6 8
e 6 9
e 6 10
e 6 11
e 6 14
e 6 18
e 6 19
e 6 21
e 6 22
e 6 23
e 6 25
e 6 28
e 6 37
e 6 38
e 6 42
e 6 43
e 6 49
e 6 67
e 6 70
e 6 82
e 6 88
e 7 8
e 7 12
e 7 15
e 7 19
e 7 26
e 7 31
e 7 33
e 7 34
e 7 36
e 7 42
e 7 44
e 7 48
e 7 73
e 7 74
e 7 75
e 7 86
e 7 90
e 7 97
e 7 98
e 8 9
e 8 11
e 8 12
e 8 19
e 8 24
e 8 29
e 8 31
e 8 32
e 8 38
e 8 63
e 8 73
e 8 74
e 8 78
e 8 91
e 8 99
e 9 15
e 9 16
e 9 17
e 9 18
e 9 20
e 9 23
e 9 43
e 9 44
e 9 49
e 9 54
e 9 75
e 9 77
e 9 79
e 9 88
e 9 94
e 9 100
e 10 13
e 10 14
e 10 21
e 10 24
e 10 27
e 10 29
e 10 30
e 10 36
e 10 43
e 10 50
e 10 52
e 10 57
e 10 78
e 10 81
e 10 99
e 11 13
e 11 15
e 11 24
e 11 26
e 11 28
e 11 30
e 11 35
e 11 39
e 11 40
e 11 48
e 11 49
e 11 53
e 11 57
e 11 61
e 11 73
e 11 85
e 11 100
e 12 15
e 12 25
e 12 33
e 12 40
e 12 50
e 12 51
e 12 56
e 12 61
e 12 62
e 12 68
e 12 74
e 12 77
e 12 82
e 12 83
e 13 15
e 13 19
e 13 35
e 13 46
e 13 52
e 13 56
e 13 61
e 13 62
e 13 63
e 13 68
e 13 70
e 13 75
e 13 77
e 13 91
e 13 93
e 14 15
e 14 16
e 14 17
e 14 25
e 14 27
e 14 48
e 14 60
e 14 66
e 14 74
e 14 76
e 14 81
e 14 86
e 14 92
e 15 20
e 15 23
e 15 30
e 15 31
e 15 32
e 15 35
e 15 58
e 15 70
e 15 90
e 15 100
e 16 25
e 16 26
e 16 29
e 16 40
e 16 45
e 16 49
e 16 50
e 16 95
e 16 100
e 17 22
e 17 27
e 17 53
e 17 60
e 17 63
e 17 65
e 17 76
e 17 78
e 17 80
e 17 89
e 17 98
e 18 37
e 18 38
e 18 44
e 18 50
e 18 52
e 18 64
e 18 94
e 18 96
e 19 21
e 19 35
e 19 36
e 19 60
e 19 79
e 19 90
e 19 96
e 20 22
e 20 28
e 20 33
e 20 55
e 20 59
e 20 60
e 20 77
e 20 83
e 21 31
e 21 34
e 21 44
e 21 88
e 21 94
e 21 98
e 22 27
e 22 32
e 22 39
e 22 91
e 23 30
e 23 33
e 23 56
e 23 69
e 23 82
e 23 90
e 24 37
e 24 43
e 24 68
e 24 71
e 24 79
e 24 87
e 24 97
e 25 58
e 25 59
e 25 71
e 25 76
e 25 92
e 25 97
e 26 38
e 26 42
e 26 54
e 26 80
e 26 95
e 27 31
e 27 33
e 27 59
e 27 66
e 28 40
e 28 55
e 28 65
e 28 80
e 28 85
e 29 43
e 29 46
e 29 47
e 29 58
e 29 63
e 29 66
e 30 53
e 30 65
e 30 72
e 30 73
e 30 84
e 31 41
e 31 64
e 31 67
e 31 89
e 31 98
e 32 39
e 32 64
e 32 67
e 32 78
e 32 80
e 32 96
e 33 47
e 33 68
e 33 81
e 33 87
e 33 89
e 34 36
e 34 51
e 34 80
e 35 45
e 35 46
e 35 64
e 35 65
e 36 41
e 36 53
e 36 82
e 36 91
e 37 51
e 37 62
e 37 88
e 37 98
e 38 39
e 38 48
e 38 71
e 38 79
e 38 96
e 39 44
e 39 47
e 39 50
e 39 59
e 39 97
e 40 69
e 40 83
e 40 87
e 40 93
e 41 55
e 41 64
e 41 81
e 41 84
e 41 92
e 42 73
e 42 84
e 42 89
e 42 94
e 43 52
e 44 70
e 44 75
e 45 52
e 45 54
e 45 66
e 46 47
e 46 88
e 46 99
e 47 71
e 47 94
e 47 100
e 48 55
e 49 55
e 49 69
e 50 95
e 51 57
e 51 93
e 52 61
e 52 76
e 53 84
e 53 93
e 54 92
e 54 99
e 55 86
e 56 83
e 56 85
e 57 58
e 57 82
e 58 96
e 58 97
e 59 92
e 60 72
e 61 91
e 62 78
e 63 67
e 64 85
e 65 85
e 66 67
e 67 99
e 68 83
e 69 70
e 70 86
e 71 72
e 72 95
e 73 95
n 5 2
n 7 2
n 19 2
n 32 1
n 40 1
n 43 2
n 48 2
n 56 2
n 65 1
n 77 2
